NAME: kroA10
TYPE: TSP
COMMENT: 10-city problem A (Krolak/Felts/Nelson)
DIMENSION: 10
EDGE_WEIGHT_TYPE : EUC_2D
NODE_COORD_SECTION
1 10 15
2 4 22
3 36 32
4 91 33
5 60 4
6 44 88
7 24 84
8 3 3
9 98 93
10 12 44